set S := 1 2;
set C := 1 2 3 4 5;

param xC := 
1  0
2  4 
3  30
4  20
5  16;

param yC :=
1  0
2  30
3  8
4  17
5  15;

param capacity := 
1 200
2 200;

param demand := 
1  60
2  90
3  35
4  85
5  50;
